SDVRP instances/custom_instances/p02_23_splitx10_0.vrp
NAME:p02_23_splitx10_
BEST_KNOWN: 0
COMMENT: 0
DIMENSION: 363
CAPACITY: 1400
EDGE_WEIGHT_FORMAT: FUNCTION
EDGE_WEIGHT_TYPE: EXACT_2D
NODE_COORD_SECTION
1 0.00000 0.00000
2 8 -9
3 8 -9
4 8 -9
5 8 -9
6 -28 -22
7 -28 -22
8 -28 -22
9 -28 -22
10 -28 -22
11 -11 45
12 -11 45
13 -11 45
14 -11 45
15 -11 45
16 -4 -38
17 -4 -38
18 -4 -38
19 -4 -38
20 -4 -38
21 -4 -38
22 -28 37
23 -28 37
24 -28 37
25 -28 37
26 -28 37
27 -29 -42
28 -29 -42
29 -29 -42
30 -29 -42
31 -29 -42
32 -29 -42
33 43 -6
34 43 -6
35 43 -6
36 43 -6
37 29 24
38 29 24
39 29 24
40 29 24
41 -40 26
42 -40 26
43 -40 26
44 0 1
45 0 1
46 0 1
47 0 1
48 0 1
49 0 1
50 0 1
51 29 20
52 29 20
53 29 20
54 29 20
55 29 20
56 29 20
57 40 -46
58 40 -46
59 40 -46
60 40 -46
61 40 -46
62 40 -46
63 40 -46
64 40 -46
65 -44 -32
66 -44 -32
67 -44 -32
68 -44 -32
69 -44 -32
70 -44 -32
71 -44 -32
72 -37 -32
73 -37 -32
74 -7 -2
75 -7 -2
76 -3 -32
77 -3 -32
78 -3 -32
79 -3 -32
80 -3 -32
81 49 31
82 49 31
83 49 31
84 49 31
85 49 31
86 -4 -15
87 -4 -15
88 -4 -15
89 -4 -15
90 -4 -15
91 -4 -15
92 8 49
93 8 49
94 -3 -33
95 -3 -33
96 -3 -33
97 -3 -33
98 -3 -33
99 -3 -33
100 -10 -42
101 -10 -42
102 -10 -42
103 -10 -42
104 -10 -42
105 29 50
106 29 50
107 29 50
108 29 50
109 29 50
110 29 50
111 29 50
112 29 50
113 21 21
114 21 21
115 21 21
116 -26 -35
117 -26 -35
118 -26 -35
119 -26 -35
120 -26 -35
121 -9 40
122 -9 40
123 -9 40
124 -9 40
125 -9 40
126 -9 40
127 -9 40
128 -16 18
129 -16 18
130 -16 18
131 -16 18
132 -16 18
133 -16 18
134 -16 18
135 30 -14
136 30 -14
137 30 -14
138 30 -14
139 22 14
140 22 14
141 22 14
142 22 14
143 22 14
144 27 -43
145 27 -43
146 27 -43
147 27 -43
148 27 -43
149 27 -43
150 27 -43
151 27 -43
152 -28 12
153 -28 12
154 -28 12
155 -28 12
156 -28 12
157 37 33
158 37 33
159 37 33
160 37 33
161 -15 15
162 -15 15
163 -15 15
164 -15 15
165 13 -49
166 13 -49
167 13 -49
168 36 42
169 36 42
170 36 42
171 36 42
172 36 42
173 -24 -16
174 -24 -16
175 -24 -16
176 -24 -16
177 -34 46
178 -21 -28
179 -21 -28
180 -21 -28
181 -21 -28
182 -21 -28
183 -21 -28
184 -21 -28
185 41 -6
186 41 -6
187 41 -6
188 41 -6
189 41 -6
190 -31 20
191 -31 20
192 -31 20
193 -31 20
194 -28 -38
195 -28 -38
196 7 11
197 7 11
198 7 11
199 7 11
200 7 11
201 7 11
202 7 11
203 -15 -32
204 -15 -32
205 -15 -32
206 -43 -40
207 -43 -40
208 -43 -40
209 -43 -40
210 -43 -40
211 -43 -40
212 -32 3
213 -32 3
214 20 -6
215 20 -6
216 20 -6
217 20 -6
218 -48 25
219 -48 25
220 -45 -47
221 -45 -47
222 -45 -47
223 -45 -47
224 -45 -47
225 -36 7
226 -36 7
227 -36 7
228 -36 7
229 -49 2
230 -49 2
231 -49 2
232 -41 28
233 -41 28
234 -38 14
235 -38 14
236 -38 14
237 -38 14
238 -38 14
239 -38 14
240 -38 14
241 3 -17
242 3 -17
243 3 -17
244 -29 -40
245 -29 -40
246 -29 -40
247 -29 -40
248 -29 -40
249 8 -27
250 8 -27
251 8 -27
252 8 -27
253 8 -27
254 8 -27
255 -9 -10
256 -9 -10
257 -9 -10
258 -9 -10
259 -9 -10
260 -9 -10
261 -9 -10
262 10 -8
263 10 -8
264 10 -8
265 10 -8
266 10 -8
267 10 -8
268 -46 4
269 -46 4
270 -46 4
271 -46 4
272 -46 4
273 -46 4
274 49 -47
275 49 -47
276 49 -47
277 49 -47
278 49 -47
279 49 -47
280 49 -47
281 46 5
282 -15 -47
283 -15 -47
284 -15 -47
285 -15 -47
286 -15 -47
287 30 -10
288 30 -10
289 30 -10
290 30 -10
291 30 -10
292 -27 -9
293 -27 -9
294 -27 -9
295 -27 -9
296 -27 -9
297 -27 -9
298 -27 -9
299 41 14
300 41 14
301 41 14
302 41 14
303 41 14
304 41 14
305 -17 43
306 -17 43
307 4 -14
308 4 -14
309 4 -14
310 4 -14
311 4 -14
312 4 -14
313 42 34
314 42 34
315 42 34
316 42 34
317 42 34
318 14 -23
319 14 -23
320 47 -43
321 47 -43
322 37 38
323 37 38
324 37 38
325 37 38
326 37 38
327 37 38
328 34 37
329 34 37
330 34 37
331 34 37
332 34 37
333 34 37
334 31 -23
335 31 -23
336 31 -23
337 -20 41
338 -20 41
339 -20 41
340 -20 41
341 -20 41
342 -20 41
343 -20 41
344 -20 41
345 44 19
346 44 19
347 44 19
348 44 19
349 44 19
350 44 19
351 44 19
352 9 -23
353 9 -23
354 9 -23
355 9 -23
356 9 -23
357 9 -23
358 0 43
359 0 43
360 0 43
361 0 43
362 0 43
363 0 43
DEMAND_SECTION
1 0
2 280
3 140
4 14
5 6
6 280
7 280
8 14
9 14
10 12
11 140
12 70
13 14
14 14
15 12
16 280
17 70
18 14
19 14
20 14
21 8
22 280
23 140
24 14
25 14
26 2
27 280
28 14
29 14
30 14
31 14
32 4
33 280
34 140
35 70
36 10
37 280
38 70
39 14
40 6
41 280
42 140
43 10
44 280
45 140
46 70
47 14
48 14
49 14
50 8
51 280
52 140
53 70
54 14
55 14
56 12
57 280
58 140
59 70
60 14
61 14
62 14
63 14
64 4
65 280
66 280
67 14
68 14
69 14
70 14
71 4
72 280
73 280
74 280
75 280
76 280
77 140
78 14
79 14
80 12
81 280
82 280
83 14
84 14
85 12
86 280
87 280
88 70
89 14
90 14
91 2
92 280
93 140
94 280
95 14
96 14
97 14
98 14
99 4
100 280
101 140
102 14
103 14
104 12
105 280
106 140
107 70
108 14
109 14
110 14
111 14
112 4
113 280
114 280
115 70
116 280
117 14
118 14
119 14
120 8
121 280
122 140
123 14
124 14
125 14
126 14
127 4
128 280
129 140
130 14
131 14
132 14
133 14
134 4
135 140
136 14
137 14
138 2
139 280
140 140
141 14
142 14
143 2
144 280
145 140
146 70
147 14
148 14
149 14
150 14
151 4
152 280
153 140
154 70
155 14
156 6
157 280
158 140
159 14
160 6
161 140
162 70
163 14
164 6
165 280
166 70
167 10
168 280
169 14
170 14
171 14
172 8
173 280
174 140
175 14
176 6
177 280
178 280
179 280
180 70
181 14
182 14
183 14
184 8
185 280
186 280
187 14
188 14
189 12
190 280
191 280
192 14
193 6
194 280
195 140
196 280
197 280
198 14
199 14
200 14
201 14
202 4
203 280
204 70
205 10
206 280
207 280
208 14
209 14
210 14
211 8
212 280
213 10
214 140
215 14
216 14
217 2
218 140
219 70
220 140
221 70
222 14
223 14
224 2
225 280
226 280
227 14
228 6
229 280
230 14
231 6
232 280
233 70
234 280
235 140
236 70
237 14
238 14
239 14
240 8
241 140
242 70
243 10
244 280
245 140
246 14
247 14
248 12
249 140
250 70
251 14
252 14
253 14
254 8
255 280
256 140
257 14
258 14
259 14
260 14
261 4
262 140
263 70
264 14
265 14
266 14
267 8
268 140
269 14
270 14
271 14
272 14
273 4
274 280
275 280
276 70
277 14
278 14
279 14
280 8
281 280
282 280
283 140
284 70
285 14
286 6
287 140
288 70
289 14
290 14
291 12
292 140
293 70
294 14
295 14
296 14
297 14
298 4
299 280
300 280
301 14
302 14
303 14
304 8
305 280
306 280
307 280
308 140
309 70
310 14
311 14
312 12
313 280
314 140
315 70
316 14
317 6
318 280
319 10
320 280
321 280
322 140
323 14
324 14
325 14
326 14
327 4
328 280
329 140
330 14
331 14
332 14
333 8
334 280
335 280
336 10
337 280
338 140
339 70
340 14
341 14
342 14
343 14
344 4
345 280
346 70
347 14
348 14
349 14
350 14
351 4
352 280
353 280
354 70
355 14
356 14
357 12
358 280
359 14
360 14
361 14
362 14
363 4
DEPOT_SECTION
1
-1
EOF