SDVRP instances/custom_instances/p02_23_splitx10_0.sol
362 -1 4 2 3 317 318 354 356 351 352 -5 8 6 177 178 179 182 181 255 259 256 -16 18 15 17 19 20 99 102 100 103 101 282 281 283 284 285 -37 36 38 39 50 55 51 52 53 54 140 139 142 138 141 -46 44 45 43 48 47 49 -57 63 273 278 274 275 279 276 277 320 319 -73 74 297 293 291 294 292 295 296 172 254 -75 79 78 77 76 96 93 97 94 98 95 248 251 249 355 353 241 240 242 -84 82 80 81 83 313 315 316 314 312 156 159 -88 89 86 87 85 90 308 309 310 311 307 306 -91 92 362 359 361 358 357 360 120 125 124 121 122 -113 112 114 199 196 195 -118 117 116 115 119 194 193 243 202 203 204 -126 123 11 14 12 13 10 305 304 340 337 341 336 338 342 343 339 -153 152 236 235 237 239 233 234 238 192 189 191 190 -155 154 151 218 217 232 231 40 42 41 161 -162 163 160 129 130 127 133 128 132 131 23 24 22 25 21 176 -173 174 175 9 7 65 69 67 64 70 68 66 72 71 258 257 260 -180 183 247 245 246 244 27 30 31 29 28 26 223 220 221 222 219 209 207 210 205 208 206 -184 187 186 185 188 34 33 32 35 280 -200 201 198 197 104 105 106 110 109 108 107 111 169 171 170 167 168 327 329 331 330 328 332 -211 212 229 230 228 268 270 272 269 271 267 224 226 227 225 -214 216 213 215 286 289 287 290 288 136 135 137 134 335 333 334 261 264 262 266 -252 253 250 165 166 164 148 145 144 146 149 150 143 147 62 56 59 60 61 58 263 265 -301 302 298 300 299 303 350 349 346 348 345 347 344 157 158 322 326 324 325 323 321 0 





OBJ=
2359.692
BEST_KNOWN=
0.000